; benchmark generated from python API
(set-info :status unknown)
(declare-fun cell_1_8 () Int)
(declare-fun cell_1_9 () Int)
(declare-fun cell_2_2 () Int)
(declare-fun cell_2_5 () Int)
(declare-fun cell_3_1 () Int)
(declare-fun cell_3_4 () Int)
(declare-fun cell_4_2 () Int)
(declare-fun cell_4_9 () Int)
(declare-fun cell_5_1 () Int)
(declare-fun cell_5_6 () Int)
(declare-fun cell_6_6 () Int)
(declare-fun cell_6_8 () Int)
(declare-fun cell_7_7 () Int)
(declare-fun cell_8_5 () Int)
(declare-fun cell_9_3 () Int)
(declare-fun cell_1_1 () Int)
(declare-fun cell_2_1 () Int)
(declare-fun cell_4_1 () Int)
(declare-fun cell_6_1 () Int)
(declare-fun cell_7_1 () Int)
(declare-fun cell_8_1 () Int)
(declare-fun cell_9_1 () Int)
(declare-fun cell_1_2 () Int)
(declare-fun cell_3_2 () Int)
(declare-fun cell_5_2 () Int)
(declare-fun cell_6_2 () Int)
(declare-fun cell_7_2 () Int)
(declare-fun cell_8_2 () Int)
(declare-fun cell_9_2 () Int)
(declare-fun cell_1_3 () Int)
(declare-fun cell_2_3 () Int)
(declare-fun cell_3_3 () Int)
(declare-fun cell_4_3 () Int)
(declare-fun cell_5_3 () Int)
(declare-fun cell_6_3 () Int)
(declare-fun cell_7_3 () Int)
(declare-fun cell_8_3 () Int)
(declare-fun cell_1_4 () Int)
(declare-fun cell_2_4 () Int)
(declare-fun cell_4_4 () Int)
(declare-fun cell_5_4 () Int)
(declare-fun cell_6_4 () Int)
(declare-fun cell_7_4 () Int)
(declare-fun cell_8_4 () Int)
(declare-fun cell_9_4 () Int)
(declare-fun cell_1_5 () Int)
(declare-fun cell_3_5 () Int)
(declare-fun cell_4_5 () Int)
(declare-fun cell_5_5 () Int)
(declare-fun cell_6_5 () Int)
(declare-fun cell_7_5 () Int)
(declare-fun cell_9_5 () Int)
(declare-fun cell_1_6 () Int)
(declare-fun cell_2_6 () Int)
(declare-fun cell_3_6 () Int)
(declare-fun cell_4_6 () Int)
(declare-fun cell_7_6 () Int)
(declare-fun cell_8_6 () Int)
(declare-fun cell_9_6 () Int)
(declare-fun cell_1_7 () Int)
(declare-fun cell_2_7 () Int)
(declare-fun cell_3_7 () Int)
(declare-fun cell_4_7 () Int)
(declare-fun cell_5_7 () Int)
(declare-fun cell_6_7 () Int)
(declare-fun cell_8_7 () Int)
(declare-fun cell_9_7 () Int)
(declare-fun cell_2_8 () Int)
(declare-fun cell_3_8 () Int)
(declare-fun cell_4_8 () Int)
(declare-fun cell_5_8 () Int)
(declare-fun cell_7_8 () Int)
(declare-fun cell_8_8 () Int)
(declare-fun cell_9_8 () Int)
(declare-fun cell_2_9 () Int)
(declare-fun cell_3_9 () Int)
(declare-fun cell_5_9 () Int)
(declare-fun cell_6_9 () Int)
(declare-fun cell_7_9 () Int)
(declare-fun cell_8_9 () Int)
(declare-fun cell_9_9 () Int)
(assert
 (= cell_1_8 1))
(assert
 (= cell_1_9 2))
(assert
 (= cell_2_2 1))
(assert
 (= cell_2_5 2))
(assert
 (= cell_3_1 2))
(assert
 (= cell_3_4 1))
(assert
 (= cell_4_2 2))
(assert
 (= cell_4_9 1))
(assert
 (= cell_5_1 1))
(assert
 (= cell_5_6 2))
(assert
 (= cell_6_6 1))
(assert
 (= cell_6_8 2))
(assert
 (= cell_7_7 1))
(assert
 (= cell_8_5 1))
(assert
 (= cell_9_3 1))
(assert
 (let (($x266 (= cell_1_1 9)))
 (let (($x1237 (= cell_1_1 8)))
 (let (($x2133 (= cell_1_1 7)))
 (let (($x1098 (= cell_1_1 6)))
 (let (($x2694 (= cell_1_1 5)))
 (let (($x144 (= cell_1_1 4)))
 (let (($x301 (= cell_1_1 3)))
 (let (($x1714 (= cell_1_1 2)))
 (let (($x3161 (= cell_1_1 1)))
 (or $x3161 $x1714 $x301 $x144 $x2694 $x1098 $x2133 $x1237 $x266)))))))))))
(assert
 (let (($x423 (= cell_2_1 9)))
 (let (($x2009 (= cell_2_1 8)))
 (let (($x969 (= cell_2_1 7)))
 (let (($x1101 (= cell_2_1 6)))
 (let (($x2318 (= cell_2_1 5)))
 (let (($x2273 (= cell_2_1 4)))
 (let (($x2196 (= cell_2_1 3)))
 (let (($x2547 (= cell_2_1 2)))
 (let (($x424 (= cell_2_1 1)))
 (or $x424 $x2547 $x2196 $x2273 $x2318 $x1101 $x969 $x2009 $x423)))))))))))
(assert
 (let (($x403 (= cell_3_1 2)))
 (or (= cell_3_1 1) $x403 (= cell_3_1 3) (= cell_3_1 4) (= cell_3_1 5) (= cell_3_1 6) (= cell_3_1 7) (= cell_3_1 8) (= cell_3_1 9))))
(assert
 (let (($x3413 (= cell_4_1 9)))
 (let (($x819 (= cell_4_1 8)))
 (let (($x213 (= cell_4_1 7)))
 (let (($x1146 (= cell_4_1 6)))
 (let (($x2614 (= cell_4_1 5)))
 (let (($x3169 (= cell_4_1 4)))
 (let (($x662 (= cell_4_1 3)))
 (let (($x2060 (= cell_4_1 2)))
 (let (($x1466 (= cell_4_1 1)))
 (or $x1466 $x2060 $x662 $x3169 $x2614 $x1146 $x213 $x819 $x3413)))))))))))
(assert
 (let (($x2002 (= cell_5_1 1)))
 (or $x2002 (= cell_5_1 2) (= cell_5_1 3) (= cell_5_1 4) (= cell_5_1 5) (= cell_5_1 6) (= cell_5_1 7) (= cell_5_1 8) (= cell_5_1 9))))
(assert
 (let (($x335 (= cell_6_1 9)))
 (let (($x1771 (= cell_6_1 8)))
 (let (($x2138 (= cell_6_1 7)))
 (let (($x38 (= cell_6_1 6)))
 (let (($x749 (= cell_6_1 5)))
 (let (($x171 (= cell_6_1 4)))
 (let (($x2741 (= cell_6_1 3)))
 (let (($x199 (= cell_6_1 2)))
 (let (($x2230 (= cell_6_1 1)))
 (or $x2230 $x199 $x2741 $x171 $x749 $x38 $x2138 $x1771 $x335)))))))))))
(assert
 (let (($x78 (= cell_7_1 9)))
 (let (($x2844 (= cell_7_1 8)))
 (let (($x2441 (= cell_7_1 7)))
 (let (($x742 (= cell_7_1 6)))
 (let (($x583 (= cell_7_1 5)))
 (let (($x2609 (= cell_7_1 4)))
 (let (($x3251 (= cell_7_1 3)))
 (let (($x2418 (= cell_7_1 2)))
 (let (($x884 (= cell_7_1 1)))
 (or $x884 $x2418 $x3251 $x2609 $x583 $x742 $x2441 $x2844 $x78)))))))))))
(assert
 (let (($x1867 (= cell_8_1 9)))
 (let (($x2217 (= cell_8_1 8)))
 (let (($x3326 (= cell_8_1 7)))
 (let (($x3341 (= cell_8_1 6)))
 (let (($x2729 (= cell_8_1 5)))
 (let (($x1838 (= cell_8_1 4)))
 (let (($x947 (= cell_8_1 3)))
 (let (($x6826 (= cell_8_1 2)))
 (let (($x3207 (= cell_8_1 1)))
 (or $x3207 $x6826 $x947 $x1838 $x2729 $x3341 $x3326 $x2217 $x1867)))))))))))
(assert
 (let (($x1794 (= cell_9_1 9)))
 (let (($x1032 (= cell_9_1 8)))
 (let (($x2667 (= cell_9_1 7)))
 (let (($x3389 (= cell_9_1 6)))
 (let (($x1292 (= cell_9_1 5)))
 (let (($x1918 (= cell_9_1 4)))
 (let (($x1686 (= cell_9_1 3)))
 (let (($x101 (= cell_9_1 2)))
 (let (($x430 (= cell_9_1 1)))
 (or $x430 $x101 $x1686 $x1918 $x1292 $x3389 $x2667 $x1032 $x1794)))))))))))
(assert
 (let (($x2062 (= cell_1_2 9)))
 (let (($x2836 (= cell_1_2 8)))
 (let (($x849 (= cell_1_2 7)))
 (let (($x580 (= cell_1_2 6)))
 (let (($x397 (= cell_1_2 5)))
 (let (($x827 (= cell_1_2 4)))
 (let (($x790 (= cell_1_2 3)))
 (let (($x2076 (= cell_1_2 2)))
 (let (($x2558 (= cell_1_2 1)))
 (or $x2558 $x2076 $x790 $x827 $x397 $x580 $x849 $x2836 $x2062)))))))))))
(assert
 (let (($x1131 (= cell_2_2 1)))
 (or $x1131 (= cell_2_2 2) (= cell_2_2 3) (= cell_2_2 4) (= cell_2_2 5) (= cell_2_2 6) (= cell_2_2 7) (= cell_2_2 8) (= cell_2_2 9))))
(assert
 (let (($x1754 (= cell_3_2 9)))
 (let (($x477 (= cell_3_2 8)))
 (let (($x349 (= cell_3_2 7)))
 (let (($x741 (= cell_3_2 6)))
 (let (($x3093 (= cell_3_2 5)))
 (let (($x1621 (= cell_3_2 4)))
 (let (($x2226 (= cell_3_2 3)))
 (let (($x2683 (= cell_3_2 2)))
 (let (($x2822 (= cell_3_2 1)))
 (or $x2822 $x2683 $x2226 $x1621 $x3093 $x741 $x349 $x477 $x1754)))))))))))
(assert
 (let (($x3274 (= cell_4_2 2)))
 (or (= cell_4_2 1) $x3274 (= cell_4_2 3) (= cell_4_2 4) (= cell_4_2 5) (= cell_4_2 6) (= cell_4_2 7) (= cell_4_2 8) (= cell_4_2 9))))
(assert
 (let (($x3059 (= cell_5_2 9)))
 (let (($x1439 (= cell_5_2 8)))
 (let (($x3031 (= cell_5_2 7)))
 (let (($x2112 (= cell_5_2 6)))
 (let (($x3314 (= cell_5_2 5)))
 (let (($x3250 (= cell_5_2 4)))
 (let (($x930 (= cell_5_2 3)))
 (let (($x2877 (= cell_5_2 2)))
 (let (($x3282 (= cell_5_2 1)))
 (or $x3282 $x2877 $x930 $x3250 $x3314 $x2112 $x3031 $x1439 $x3059)))))))))))
(assert
 (let (($x834 (= cell_6_2 9)))
 (let (($x1799 (= cell_6_2 8)))
 (let (($x157 (= cell_6_2 7)))
 (let (($x186 (= cell_6_2 6)))
 (let (($x946 (= cell_6_2 5)))
 (let (($x202 (= cell_6_2 4)))
 (let (($x2123 (= cell_6_2 3)))
 (let (($x2208 (= cell_6_2 2)))
 (let (($x2603 (= cell_6_2 1)))
 (or $x2603 $x2208 $x2123 $x202 $x946 $x186 $x157 $x1799 $x834)))))))))))
(assert
 (let (($x959 (= cell_7_2 9)))
 (let (($x1022 (= cell_7_2 8)))
 (let (($x3149 (= cell_7_2 7)))
 (let (($x3402 (= cell_7_2 6)))
 (let (($x1762 (= cell_7_2 5)))
 (let (($x66 (= cell_7_2 4)))
 (let (($x1744 (= cell_7_2 3)))
 (let (($x1242 (= cell_7_2 2)))
 (let (($x1609 (= cell_7_2 1)))
 (or $x1609 $x1242 $x1744 $x66 $x1762 $x3402 $x3149 $x1022 $x959)))))))))))
(assert
 (let (($x2702 (= cell_8_2 9)))
 (let (($x685 (= cell_8_2 8)))
 (let (($x221 (= cell_8_2 7)))
 (let (($x1664 (= cell_8_2 6)))
 (let (($x927 (= cell_8_2 5)))
 (let (($x544 (= cell_8_2 4)))
 (let (($x1661 (= cell_8_2 3)))
 (let (($x1632 (= cell_8_2 2)))
 (let (($x276 (= cell_8_2 1)))
 (or $x276 $x1632 $x1661 $x544 $x927 $x1664 $x221 $x685 $x2702)))))))))))
(assert
 (let (($x2296 (= cell_9_2 9)))
 (let (($x3168 (= cell_9_2 8)))
 (let (($x1752 (= cell_9_2 7)))
 (let (($x224 (= cell_9_2 6)))
 (let (($x1048 (= cell_9_2 5)))
 (let (($x1290 (= cell_9_2 4)))
 (let (($x2709 (= cell_9_2 3)))
 (let (($x2156 (= cell_9_2 2)))
 (let (($x2243 (= cell_9_2 1)))
 (or $x2243 $x2156 $x2709 $x1290 $x1048 $x224 $x1752 $x3168 $x2296)))))))))))
(assert
 (let (($x1217 (= cell_1_3 9)))
 (let (($x2483 (= cell_1_3 8)))
 (let (($x1817 (= cell_1_3 7)))
 (let (($x2766 (= cell_1_3 6)))
 (let (($x1687 (= cell_1_3 5)))
 (let (($x3408 (= cell_1_3 4)))
 (let (($x1579 (= cell_1_3 3)))
 (let (($x574 (= cell_1_3 2)))
 (let (($x2690 (= cell_1_3 1)))
 (or $x2690 $x574 $x1579 $x3408 $x1687 $x2766 $x1817 $x2483 $x1217)))))))))))
(assert
 (let (($x1460 (= cell_2_3 9)))
 (let (($x776 (= cell_2_3 8)))
 (let (($x3260 (= cell_2_3 7)))
 (let (($x800 (= cell_2_3 6)))
 (let (($x1624 (= cell_2_3 5)))
 (let (($x711 (= cell_2_3 4)))
 (let (($x2327 (= cell_2_3 3)))
 (let (($x1158 (= cell_2_3 2)))
 (let (($x2931 (= cell_2_3 1)))
 (or $x2931 $x1158 $x2327 $x711 $x1624 $x800 $x3260 $x776 $x1460)))))))))))
(assert
 (let (($x96 (= cell_3_3 9)))
 (let (($x1130 (= cell_3_3 8)))
 (let (($x1773 (= cell_3_3 7)))
 (let (($x2189 (= cell_3_3 6)))
 (let (($x2100 (= cell_3_3 5)))
 (let (($x2837 (= cell_3_3 4)))
 (let (($x956 (= cell_3_3 3)))
 (let (($x255 (= cell_3_3 2)))
 (let (($x1014 (= cell_3_3 1)))
 (or $x1014 $x255 $x956 $x2837 $x2100 $x2189 $x1773 $x1130 $x96)))))))))))
(assert
 (let (($x337 (= cell_4_3 9)))
 (let (($x3084 (= cell_4_3 8)))
 (let (($x1141 (= cell_4_3 7)))
 (let (($x853 (= cell_4_3 6)))
 (let (($x1065 (= cell_4_3 5)))
 (let (($x2619 (= cell_4_3 4)))
 (let (($x970 (= cell_4_3 3)))
 (let (($x2594 (= cell_4_3 2)))
 (let (($x2099 (= cell_4_3 1)))
 (or $x2099 $x2594 $x970 $x2619 $x1065 $x853 $x1141 $x3084 $x337)))))))))))
(assert
 (let (($x826 (= cell_5_3 9)))
 (let (($x953 (= cell_5_3 8)))
 (let (($x1570 (= cell_5_3 7)))
 (let (($x817 (= cell_5_3 6)))
 (let (($x1600 (= cell_5_3 5)))
 (let (($x760 (= cell_5_3 4)))
 (let (($x2140 (= cell_5_3 3)))
 (let (($x2527 (= cell_5_3 2)))
 (let (($x3394 (= cell_5_3 1)))
 (or $x3394 $x2527 $x2140 $x760 $x1600 $x817 $x1570 $x953 $x826)))))))))))
(assert
 (let (($x2341 (= cell_6_3 9)))
 (let (($x1326 (= cell_6_3 8)))
 (let (($x2878 (= cell_6_3 7)))
 (let (($x1726 (= cell_6_3 6)))
 (let (($x2835 (= cell_6_3 5)))
 (let (($x1441 (= cell_6_3 4)))
 (let (($x2310 (= cell_6_3 3)))
 (let (($x2950 (= cell_6_3 2)))
 (let (($x773 (= cell_6_3 1)))
 (or $x773 $x2950 $x2310 $x1441 $x2835 $x1726 $x2878 $x1326 $x2341)))))))))))
(assert
 (let (($x894 (= cell_7_3 9)))
 (let (($x442 (= cell_7_3 8)))
 (let (($x2508 (= cell_7_3 7)))
 (let (($x2512 (= cell_7_3 6)))
 (let (($x2469 (= cell_7_3 5)))
 (let (($x1283 (= cell_7_3 4)))
 (let (($x979 (= cell_7_3 3)))
 (let (($x7983 (= cell_7_3 2)))
 (let (($x3225 (= cell_7_3 1)))
 (or $x3225 $x7983 $x979 $x1283 $x2469 $x2512 $x2508 $x442 $x894)))))))))))
(assert
 (let (($x3166 (= cell_8_3 9)))
 (let (($x607 (= cell_8_3 8)))
 (let (($x606 (= cell_8_3 7)))
 (let (($x1740 (= cell_8_3 6)))
 (let (($x1511 (= cell_8_3 5)))
 (let (($x1947 (= cell_8_3 4)))
 (let (($x2325 (= cell_8_3 3)))
 (let (($x247 (= cell_8_3 2)))
 (let (($x6882 (= cell_8_3 1)))
 (or $x6882 $x247 $x2325 $x1947 $x1511 $x1740 $x606 $x607 $x3166)))))))))))
(assert
 (let (($x2826 (= cell_9_3 1)))
 (or $x2826 (= cell_9_3 2) (= cell_9_3 3) (= cell_9_3 4) (= cell_9_3 5) (= cell_9_3 6) (= cell_9_3 7) (= cell_9_3 8) (= cell_9_3 9))))
(assert
 (let (($x682 (= cell_1_4 9)))
 (let (($x572 (= cell_1_4 8)))
 (let (($x4408 (= cell_1_4 7)))
 (let (($x1890 (= cell_1_4 6)))
 (let (($x2280 (= cell_1_4 5)))
 (let (($x2616 (= cell_1_4 4)))
 (let (($x771 (= cell_1_4 3)))
 (let (($x1891 (= cell_1_4 2)))
 (let (($x689 (= cell_1_4 1)))
 (or $x689 $x1891 $x771 $x2616 $x2280 $x1890 $x4408 $x572 $x682)))))))))))
(assert
 (let (($x1263 (= cell_2_4 9)))
 (let (($x2522 (= cell_2_4 8)))
 (let (($x117 (= cell_2_4 7)))
 (let (($x7478 (= cell_2_4 6)))
 (let (($x2775 (= cell_2_4 5)))
 (let (($x431 (= cell_2_4 4)))
 (let (($x2134 (= cell_2_4 3)))
 (let (($x1038 (= cell_2_4 2)))
 (let (($x3098 (= cell_2_4 1)))
 (or $x3098 $x1038 $x2134 $x431 $x2775 $x7478 $x117 $x2522 $x1263)))))))))))
(assert
 (let (($x2750 (= cell_3_4 1)))
 (or $x2750 (= cell_3_4 2) (= cell_3_4 3) (= cell_3_4 4) (= cell_3_4 5) (= cell_3_4 6) (= cell_3_4 7) (= cell_3_4 8) (= cell_3_4 9))))
(assert
 (let (($x1582 (= cell_4_4 9)))
 (let (($x3104 (= cell_4_4 8)))
 (let (($x1674 (= cell_4_4 7)))
 (let (($x94 (= cell_4_4 6)))
 (let (($x2821 (= cell_4_4 5)))
 (let (($x1162 (= cell_4_4 4)))
 (let (($x2164 (= cell_4_4 3)))
 (let (($x3382 (= cell_4_4 2)))
 (let (($x3066 (= cell_4_4 1)))
 (or $x3066 $x3382 $x2164 $x1162 $x2821 $x94 $x1674 $x3104 $x1582)))))))))))
(assert
 (let (($x3337 (= cell_5_4 9)))
 (let (($x744 (= cell_5_4 8)))
 (let (($x3236 (= cell_5_4 7)))
 (let (($x3136 (= cell_5_4 6)))
 (let (($x3324 (= cell_5_4 5)))
 (let (($x1313 (= cell_5_4 4)))
 (let (($x3279 (= cell_5_4 3)))
 (let (($x2184 (= cell_5_4 2)))
 (let (($x2456 (= cell_5_4 1)))
 (or $x2456 $x2184 $x3279 $x1313 $x3324 $x3136 $x3236 $x744 $x3337)))))))))))
(assert
 (let (($x2379 (= cell_6_4 9)))
 (let (($x1187 (= cell_6_4 8)))
 (let (($x2045 (= cell_6_4 7)))
 (let (($x4444 (= cell_6_4 6)))
 (let (($x670 (= cell_6_4 5)))
 (let (($x1494 (= cell_6_4 4)))
 (let (($x1598 (= cell_6_4 3)))
 (let (($x1007 (= cell_6_4 2)))
 (let (($x318 (= cell_6_4 1)))
 (or $x318 $x1007 $x1598 $x1494 $x670 $x4444 $x2045 $x1187 $x2379)))))))))))
(assert
 (let (($x416 (= cell_7_4 9)))
 (let (($x1569 (= cell_7_4 8)))
 (let (($x2541 (= cell_7_4 7)))
 (let (($x1134 (= cell_7_4 6)))
 (let (($x1416 (= cell_7_4 5)))
 (let (($x2073 (= cell_7_4 4)))
 (let (($x2976 (= cell_7_4 3)))
 (let (($x489 (= cell_7_4 2)))
 (let (($x3239 (= cell_7_4 1)))
 (or $x3239 $x489 $x2976 $x2073 $x1416 $x1134 $x2541 $x1569 $x416)))))))))))
(assert
 (let (($x2900 (= cell_8_4 9)))
 (let (($x1955 (= cell_8_4 8)))
 (let (($x762 (= cell_8_4 7)))
 (let (($x1054 (= cell_8_4 6)))
 (let (($x2055 (= cell_8_4 5)))
 (let (($x1428 (= cell_8_4 4)))
 (let (($x2103 (= cell_8_4 3)))
 (let (($x2405 (= cell_8_4 2)))
 (let (($x3131 (= cell_8_4 1)))
 (or $x3131 $x2405 $x2103 $x1428 $x2055 $x1054 $x762 $x1955 $x2900)))))))))))
(assert
 (let (($x520 (= cell_9_4 1)))
 (or $x520 (= cell_9_4 2) (= cell_9_4 3) (= cell_9_4 4) (= cell_9_4 5) (= cell_9_4 6) (= cell_9_4 7) (= cell_9_4 8) (= cell_9_4 9))))
(assert
 (let (($x1021 (= cell_1_5 9)))
 (let (($x2022 (= cell_1_5 8)))
 (let (($x377 (= cell_1_5 7)))
 (let (($x163 (= cell_1_5 6)))
 (let (($x1858 (= cell_1_5 5)))
 (let (($x1925 (= cell_1_5 4)))
 (let (($x3379 (= cell_1_5 3)))
 (let (($x839 (= cell_1_5 2)))
 (let (($x2691 (= cell_1_5 1)))
 (or $x2691 $x839 $x3379 $x1925 $x1858 $x163 $x377 $x2022 $x1021)))))))))))
(assert
 (let (($x3368 (= cell_2_5 2)))
 (or (= cell_2_5 1) $x3368 (= cell_2_5 3) (= cell_2_5 4) (= cell_2_5 5) (= cell_2_5 6) (= cell_2_5 7) (= cell_2_5 8) (= cell_2_5 9))))
(assert
 (let (($x2966 (= cell_3_5 9)))
 (let (($x715 (= cell_3_5 8)))
 (let (($x2831 (= cell_3_5 7)))
 (let (($x2063 (= cell_3_5 6)))
 (let (($x2923 (= cell_3_5 5)))
 (let (($x2646 (= cell_3_5 4)))
 (let (($x3155 (= cell_3_5 3)))
 (let (($x3062 (= cell_3_5 2)))
 (let (($x3240 (= cell_3_5 1)))
 (or $x3240 $x3062 $x3155 $x2646 $x2923 $x2063 $x2831 $x715 $x2966)))))))))))
(assert
 (let (($x1663 (= cell_4_5 9)))
 (let (($x1433 (= cell_4_5 8)))
 (let (($x2143 (= cell_4_5 7)))
 (let (($x125 (= cell_4_5 6)))
 (let (($x7819 (= cell_4_5 5)))
 (let (($x3348 (= cell_4_5 4)))
 (let (($x81 (= cell_4_5 3)))
 (let (($x466 (= cell_4_5 2)))
 (let (($x563 (= cell_4_5 1)))
 (or $x563 $x466 $x81 $x3348 $x7819 $x125 $x2143 $x1433 $x1663)))))))))))
(assert
 (let (($x334 (= cell_5_5 9)))
 (let (($x603 (= cell_5_5 8)))
 (let (($x1194 (= cell_5_5 7)))
 (let (($x1580 (= cell_5_5 6)))
 (let (($x1821 (= cell_5_5 5)))
 (let (($x1733 (= cell_5_5 4)))
 (let (($x75 (= cell_5_5 3)))
 (let (($x3325 (= cell_5_5 2)))
 (let (($x2001 (= cell_5_5 1)))
 (or $x2001 $x3325 $x75 $x1733 $x1821 $x1580 $x1194 $x603 $x334)))))))))))
(assert
 (let (($x1834 (= cell_6_5 9)))
 (let (($x554 (= cell_6_5 8)))
 (let (($x2526 (= cell_6_5 7)))
 (let (($x249 (= cell_6_5 6)))
 (let (($x2206 (= cell_6_5 5)))
 (let (($x1267 (= cell_6_5 4)))
 (let (($x1715 (= cell_6_5 3)))
 (let (($x2913 (= cell_6_5 2)))
 (let (($x2638 (= cell_6_5 1)))
 (or $x2638 $x2913 $x1715 $x1267 $x2206 $x249 $x2526 $x554 $x1834)))))))))))
(assert
 (let (($x2159 (= cell_7_5 9)))
 (let (($x2246 (= cell_7_5 8)))
 (let (($x3304 (= cell_7_5 7)))
 (let (($x2070 (= cell_7_5 6)))
 (let (($x633 (= cell_7_5 5)))
 (let (($x3736 (= cell_7_5 4)))
 (let (($x2372 (= cell_7_5 3)))
 (let (($x1954 (= cell_7_5 2)))
 (let (($x1585 (= cell_7_5 1)))
 (or $x1585 $x1954 $x2372 $x3736 $x633 $x2070 $x3304 $x2246 $x2159)))))))))))
(assert
 (let (($x198 (= cell_8_5 1)))
 (or $x198 (= cell_8_5 2) (= cell_8_5 3) (= cell_8_5 4) (= cell_8_5 5) (= cell_8_5 6) (= cell_8_5 7) (= cell_8_5 8) (= cell_8_5 9))))
(assert
 (let (($x2311 (= cell_9_5 2)))
 (let (($x2650 (= cell_9_5 1)))
 (or $x2650 $x2311 (= cell_9_5 3) (= cell_9_5 4) (= cell_9_5 5) (= cell_9_5 6) (= cell_9_5 7) (= cell_9_5 8) (= cell_9_5 9)))))
(assert
 (let (($x706 (= cell_1_6 9)))
 (let (($x2571 (= cell_1_6 8)))
 (let (($x568 (= cell_1_6 7)))
 (let (($x2965 (= cell_1_6 6)))
 (let (($x3069 (= cell_1_6 5)))
 (let (($x3082 (= cell_1_6 4)))
 (let (($x3119 (= cell_1_6 3)))
 (let (($x2620 (= cell_1_6 2)))
 (let (($x2231 (= cell_1_6 1)))
 (or $x2231 $x2620 $x3119 $x3082 $x3069 $x2965 $x568 $x2571 $x706)))))))))))
(assert
 (let (($x71 (= cell_2_6 9)))
 (let (($x1471 (= cell_2_6 8)))
 (let (($x1545 (= cell_2_6 7)))
 (let (($x1372 (= cell_2_6 6)))
 (let (($x155 (= cell_2_6 5)))
 (let (($x6738 (= cell_2_6 4)))
 (let (($x2486 (= cell_2_6 3)))
 (let (($x3374 (= cell_2_6 2)))
 (let (($x2745 (= cell_2_6 1)))
 (or $x2745 $x3374 $x2486 $x6738 $x155 $x1372 $x1545 $x1471 $x71)))))))))))
(assert
 (let (($x3276 (= cell_3_6 9)))
 (let (($x1303 (= cell_3_6 8)))
 (let (($x8125 (= cell_3_6 7)))
 (let (($x150 (= cell_3_6 6)))
 (let (($x573 (= cell_3_6 5)))
 (let (($x3403 (= cell_3_6 4)))
 (let (($x1410 (= cell_3_6 3)))
 (let (($x2113 (= cell_3_6 2)))
 (let (($x2641 (= cell_3_6 1)))
 (or $x2641 $x2113 $x1410 $x3403 $x573 $x150 $x8125 $x1303 $x3276)))))))))))
(assert
 (let (($x2373 (= cell_4_6 9)))
 (let (($x1427 (= cell_4_6 8)))
 (let (($x14 (= cell_4_6 7)))
 (let (($x1214 (= cell_4_6 6)))
 (let (($x677 (= cell_4_6 5)))
 (let (($x1603 (= cell_4_6 4)))
 (let (($x1555 (= cell_4_6 3)))
 (let (($x1278 (= cell_4_6 2)))
 (let (($x856 (= cell_4_6 1)))
 (or $x856 $x1278 $x1555 $x1603 $x677 $x1214 $x14 $x1427 $x2373)))))))))))
(assert
 (let (($x2676 (= cell_5_6 2)))
 (or (= cell_5_6 1) $x2676 (= cell_5_6 3) (= cell_5_6 4) (= cell_5_6 5) (= cell_5_6 6) (= cell_5_6 7) (= cell_5_6 8) (= cell_5_6 9))))
(assert
 (let (($x3188 (= cell_6_6 1)))
 (or $x3188 (= cell_6_6 2) (= cell_6_6 3) (= cell_6_6 4) (= cell_6_6 5) (= cell_6_6 6) (= cell_6_6 7) (= cell_6_6 8) (= cell_6_6 9))))
(assert
 (let (($x1205 (= cell_7_6 9)))
 (let (($x957 (= cell_7_6 8)))
 (let (($x1336 (= cell_7_6 7)))
 (let (($x1256 (= cell_7_6 6)))
 (let (($x3266 (= cell_7_6 5)))
 (let (($x3210 (= cell_7_6 4)))
 (let (($x2004 (= cell_7_6 3)))
 (let (($x990 (= cell_7_6 2)))
 (let (($x3296 (= cell_7_6 1)))
 (or $x3296 $x990 $x2004 $x3210 $x3266 $x1256 $x1336 $x957 $x1205)))))))))))
(assert
 (let (($x33 (= cell_8_6 2)))
 (let (($x645 (= cell_8_6 1)))
 (or $x645 $x33 (= cell_8_6 3) (= cell_8_6 4) (= cell_8_6 5) (= cell_8_6 6) (= cell_8_6 7) (= cell_8_6 8) (= cell_8_6 9)))))
(assert
 (let (($x519 (= cell_9_6 2)))
 (let (($x2421 (= cell_9_6 1)))
 (or $x2421 $x519 (= cell_9_6 3) (= cell_9_6 4) (= cell_9_6 5) (= cell_9_6 6) (= cell_9_6 7) (= cell_9_6 8) (= cell_9_6 9)))))
(assert
 (let (($x188 (= cell_1_7 9)))
 (let (($x1535 (= cell_1_7 8)))
 (let (($x1394 (= cell_1_7 7)))
 (let (($x1125 (= cell_1_7 6)))
 (let (($x3018 (= cell_1_7 5)))
 (let (($x2400 (= cell_1_7 4)))
 (let (($x459 (= cell_1_7 3)))
 (let (($x2817 (= cell_1_7 2)))
 (let (($x1184 (= cell_1_7 1)))
 (or $x1184 $x2817 $x459 $x2400 $x3018 $x1125 $x1394 $x1535 $x188)))))))))))
(assert
 (let (($x3091 (= cell_2_7 9)))
 (let (($x166 (= cell_2_7 8)))
 (let (($x668 (= cell_2_7 7)))
 (let (($x688 (= cell_2_7 6)))
 (let (($x2533 (= cell_2_7 5)))
 (let (($x848 (= cell_2_7 4)))
 (let (($x3297 (= cell_2_7 3)))
 (let (($x2019 (= cell_2_7 2)))
 (let (($x64 (= cell_2_7 1)))
 (or $x64 $x2019 $x3297 $x848 $x2533 $x688 $x668 $x166 $x3091)))))))))))
(assert
 (let (($x3074 (= cell_3_7 9)))
 (let (($x2271 (= cell_3_7 8)))
 (let (($x2085 (= cell_3_7 7)))
 (let (($x2180 (= cell_3_7 6)))
 (let (($x2871 (= cell_3_7 5)))
 (let (($x950 (= cell_3_7 4)))
 (let (($x899 (= cell_3_7 3)))
 (let (($x1801 (= cell_3_7 2)))
 (let (($x2198 (= cell_3_7 1)))
 (or $x2198 $x1801 $x899 $x950 $x2871 $x2180 $x2085 $x2271 $x3074)))))))))))
(assert
 (let (($x1356 (= cell_4_7 9)))
 (let (($x1908 (= cell_4_7 8)))
 (let (($x98 (= cell_4_7 7)))
 (let (($x1999 (= cell_4_7 6)))
 (let (($x2858 (= cell_4_7 5)))
 (let (($x3396 (= cell_4_7 4)))
 (let (($x2447 (= cell_4_7 3)))
 (let (($x1264 (= cell_4_7 2)))
 (let (($x1265 (= cell_4_7 1)))
 (or $x1265 $x1264 $x2447 $x3396 $x2858 $x1999 $x98 $x1908 $x1356)))))))))))
(assert
 (let (($x981 (= cell_5_7 9)))
 (let (($x2534 (= cell_5_7 8)))
 (let (($x380 (= cell_5_7 7)))
 (let (($x226 (= cell_5_7 6)))
 (let (($x1392 (= cell_5_7 5)))
 (let (($x3375 (= cell_5_7 4)))
 (let (($x3289 (= cell_5_7 3)))
 (let (($x3126 (= cell_5_7 2)))
 (let (($x1800 (= cell_5_7 1)))
 (or $x1800 $x3126 $x3289 $x3375 $x1392 $x226 $x380 $x2534 $x981)))))))))))
(assert
 (let (($x2587 (= cell_6_7 9)))
 (let (($x240 (= cell_6_7 8)))
 (let (($x179 (= cell_6_7 7)))
 (let (($x3404 (= cell_6_7 6)))
 (let (($x1515 (= cell_6_7 5)))
 (let (($x2294 (= cell_6_7 4)))
 (let (($x3101 (= cell_6_7 3)))
 (let (($x1804 (= cell_6_7 2)))
 (let (($x372 (= cell_6_7 1)))
 (or $x372 $x1804 $x3101 $x2294 $x1515 $x3404 $x179 $x240 $x2587)))))))))))
(assert
 (let (($x3213 (= cell_7_7 1)))
 (or $x3213 (= cell_7_7 2) (= cell_7_7 3) (= cell_7_7 4) (= cell_7_7 5) (= cell_7_7 6) (= cell_7_7 7) (= cell_7_7 8) (= cell_7_7 9))))
(assert
 (let (($x449 (= cell_8_7 1)))
 (or $x449 (= cell_8_7 2) (= cell_8_7 3) (= cell_8_7 4) (= cell_8_7 5) (= cell_8_7 6) (= cell_8_7 7) (= cell_8_7 8) (= cell_8_7 9))))
(assert
 (let (($x3109 (= cell_9_7 1)))
 (or $x3109 (= cell_9_7 2) (= cell_9_7 3) (= cell_9_7 4) (= cell_9_7 5) (= cell_9_7 6) (= cell_9_7 7) (= cell_9_7 8) (= cell_9_7 9))))
(assert
 (let (($x939 (= cell_1_8 1)))
 (or $x939 (= cell_1_8 2) (= cell_1_8 3) (= cell_1_8 4) (= cell_1_8 5) (= cell_1_8 6) (= cell_1_8 7) (= cell_1_8 8) (= cell_1_8 9))))
(assert
 (let (($x1528 (= cell_2_8 9)))
 (let (($x906 (= cell_2_8 8)))
 (let (($x2861 (= cell_2_8 7)))
 (let (($x359 (= cell_2_8 6)))
 (let (($x3290 (= cell_2_8 5)))
 (let (($x945 (= cell_2_8 4)))
 (let (($x1806 (= cell_2_8 3)))
 (let (($x315 (= cell_2_8 2)))
 (let (($x63 (= cell_2_8 1)))
 (or $x63 $x315 $x1806 $x945 $x3290 $x359 $x2861 $x906 $x1528)))))))))))
(assert
 (let (($x2645 (= cell_3_8 9)))
 (let (($x2470 (= cell_3_8 8)))
 (let (($x2190 (= cell_3_8 7)))
 (let (($x1611 (= cell_3_8 6)))
 (let (($x2986 (= cell_3_8 5)))
 (let (($x2107 (= cell_3_8 4)))
 (let (($x3027 (= cell_3_8 3)))
 (let (($x703 (= cell_3_8 2)))
 (let (($x699 (= cell_3_8 1)))
 (or $x699 $x703 $x3027 $x2107 $x2986 $x1611 $x2190 $x2470 $x2645)))))))))))
(assert
 (let (($x1607 (= cell_4_8 9)))
 (let (($x729 (= cell_4_8 8)))
 (let (($x3147 (= cell_4_8 7)))
 (let (($x6824 (= cell_4_8 6)))
 (let (($x727 (= cell_4_8 5)))
 (let (($x2086 (= cell_4_8 4)))
 (let (($x1036 (= cell_4_8 3)))
 (let (($x2237 (= cell_4_8 2)))
 (let (($x2705 (= cell_4_8 1)))
 (or $x2705 $x2237 $x1036 $x2086 $x727 $x6824 $x3147 $x729 $x1607)))))))))))
(assert
 (let (($x653 (= cell_5_8 9)))
 (let (($x1508 (= cell_5_8 8)))
 (let (($x1345 (= cell_5_8 7)))
 (let (($x1620 (= cell_5_8 6)))
 (let (($x1468 (= cell_5_8 5)))
 (let (($x3372 (= cell_5_8 4)))
 (let (($x2232 (= cell_5_8 3)))
 (let (($x264 (= cell_5_8 2)))
 (let (($x3017 (= cell_5_8 1)))
 (or $x3017 $x264 $x2232 $x3372 $x1468 $x1620 $x1345 $x1508 $x653)))))))))))
(assert
 (let (($x1478 (= cell_6_8 2)))
 (or (= cell_6_8 1) $x1478 (= cell_6_8 3) (= cell_6_8 4) (= cell_6_8 5) (= cell_6_8 6) (= cell_6_8 7) (= cell_6_8 8) (= cell_6_8 9))))
(assert
 (let (($x35 (= cell_7_8 2)))
 (let (($x1286 (= cell_7_8 1)))
 (or $x1286 $x35 (= cell_7_8 3) (= cell_7_8 4) (= cell_7_8 5) (= cell_7_8 6) (= cell_7_8 7) (= cell_7_8 8) (= cell_7_8 9)))))
(assert
 (let (($x1822 (= cell_8_8 2)))
 (let (($x444 (= cell_8_8 1)))
 (or $x444 $x1822 (= cell_8_8 3) (= cell_8_8 4) (= cell_8_8 5) (= cell_8_8 6) (= cell_8_8 7) (= cell_8_8 8) (= cell_8_8 9)))))
(assert
 (let (($x1968 (= cell_9_8 2)))
 (let (($x2679 (= cell_9_8 1)))
 (or $x2679 $x1968 (= cell_9_8 3) (= cell_9_8 4) (= cell_9_8 5) (= cell_9_8 6) (= cell_9_8 7) (= cell_9_8 8) (= cell_9_8 9)))))
(assert
 (let (($x698 (= cell_1_9 2)))
 (or (= cell_1_9 1) $x698 (= cell_1_9 3) (= cell_1_9 4) (= cell_1_9 5) (= cell_1_9 6) (= cell_1_9 7) (= cell_1_9 8) (= cell_1_9 9))))
(assert
 (let (($x2882 (= cell_2_9 9)))
 (let (($x1398 (= cell_2_9 8)))
 (let (($x1027 (= cell_2_9 7)))
 (let (($x667 (= cell_2_9 6)))
 (let (($x2265 (= cell_2_9 5)))
 (let (($x734 (= cell_2_9 4)))
 (let (($x2518 (= cell_2_9 3)))
 (let (($x1128 (= cell_2_9 2)))
 (let (($x782 (= cell_2_9 1)))
 (or $x782 $x1128 $x2518 $x734 $x2265 $x667 $x1027 $x1398 $x2882)))))))))))
(assert
 (let (($x3071 (= cell_3_9 9)))
 (let (($x1208 (= cell_3_9 8)))
 (let (($x1446 (= cell_3_9 7)))
 (let (($x1045 (= cell_3_9 6)))
 (let (($x3307 (= cell_3_9 5)))
 (let (($x2808 (= cell_3_9 4)))
 (let (($x1623 (= cell_3_9 3)))
 (let (($x551 (= cell_3_9 2)))
 (let (($x2038 (= cell_3_9 1)))
 (or $x2038 $x551 $x1623 $x2808 $x3307 $x1045 $x1446 $x1208 $x3071)))))))))))
(assert
 (let (($x2713 (= cell_4_9 1)))
 (or $x2713 (= cell_4_9 2) (= cell_4_9 3) (= cell_4_9 4) (= cell_4_9 5) (= cell_4_9 6) (= cell_4_9 7) (= cell_4_9 8) (= cell_4_9 9))))
(assert
 (let (($x3075 (= cell_5_9 9)))
 (let (($x966 (= cell_5_9 8)))
 (let (($x1606 (= cell_5_9 7)))
 (let (($x1182 (= cell_5_9 6)))
 (let (($x368 (= cell_5_9 5)))
 (let (($x506 (= cell_5_9 4)))
 (let (($x657 (= cell_5_9 3)))
 (let (($x949 (= cell_5_9 2)))
 (let (($x988 (= cell_5_9 1)))
 (or $x988 $x949 $x657 $x506 $x368 $x1182 $x1606 $x966 $x3075)))))))))))
(assert
 (let (($x1499 (= cell_6_9 2)))
 (let (($x2205 (= cell_6_9 1)))
 (or $x2205 $x1499 (= cell_6_9 3) (= cell_6_9 4) (= cell_6_9 5) (= cell_6_9 6) (= cell_6_9 7) (= cell_6_9 8) (= cell_6_9 9)))))
(assert
 (let (($x2079 (= cell_7_9 2)))
 (let (($x1183 (= cell_7_9 1)))
 (or $x1183 $x2079 (= cell_7_9 3) (= cell_7_9 4) (= cell_7_9 5) (= cell_7_9 6) (= cell_7_9 7) (= cell_7_9 8) (= cell_7_9 9)))))
(assert
 (let (($x650 (= cell_8_9 2)))
 (let (($x1224 (= cell_8_9 1)))
 (or $x1224 $x650 (= cell_8_9 3) (= cell_8_9 4) (= cell_8_9 5) (= cell_8_9 6) (= cell_8_9 7) (= cell_8_9 8) (= cell_8_9 9)))))
(assert
 (let (($x2777 (= cell_9_9 2)))
 (let (($x227 (= cell_9_9 1)))
 (or $x227 $x2777 (= cell_9_9 3) (= cell_9_9 4) (= cell_9_9 5) (= cell_9_9 6) (= cell_9_9 7) (= cell_9_9 8) (= cell_9_9 9)))))
(assert
 (and (distinct cell_1_1 cell_1_2 cell_1_3 cell_1_4 cell_1_5 cell_1_6 cell_1_7 cell_1_8 cell_1_9) true))
(assert
 (and (distinct cell_2_1 cell_2_2 cell_2_3 cell_2_4 cell_2_5 cell_2_6 cell_2_7 cell_2_8 cell_2_9) true))
(assert
 (and (distinct cell_3_1 cell_3_2 cell_3_3 cell_3_4 cell_3_5 cell_3_6 cell_3_7 cell_3_8 cell_3_9) true))
(assert
 (and (distinct cell_4_1 cell_4_2 cell_4_3 cell_4_4 cell_4_5 cell_4_6 cell_4_7 cell_4_8 cell_4_9) true))
(assert
 (and (distinct cell_5_1 cell_5_2 cell_5_3 cell_5_4 cell_5_5 cell_5_6 cell_5_7 cell_5_8 cell_5_9) true))
(assert
 (and (distinct cell_6_1 cell_6_2 cell_6_3 cell_6_4 cell_6_5 cell_6_6 cell_6_7 cell_6_8 cell_6_9) true))
(assert
 (and (distinct cell_7_1 cell_7_2 cell_7_3 cell_7_4 cell_7_5 cell_7_6 cell_7_7 cell_7_8 cell_7_9) true))
(assert
 (and (distinct cell_8_1 cell_8_2 cell_8_3 cell_8_4 cell_8_5 cell_8_6 cell_8_7 cell_8_8 cell_8_9) true))
(assert
 (and (distinct cell_9_1 cell_9_2 cell_9_3 cell_9_4 cell_9_5 cell_9_6 cell_9_7 cell_9_8 cell_9_9) true))
(assert
 (and (distinct cell_1_1 cell_2_1 cell_3_1 cell_4_1 cell_5_1 cell_6_1 cell_7_1 cell_8_1 cell_9_1) true))
(assert
 (and (distinct cell_1_2 cell_2_2 cell_3_2 cell_4_2 cell_5_2 cell_6_2 cell_7_2 cell_8_2 cell_9_2) true))
(assert
 (and (distinct cell_1_3 cell_2_3 cell_3_3 cell_4_3 cell_5_3 cell_6_3 cell_7_3 cell_8_3 cell_9_3) true))
(assert
 (and (distinct cell_1_4 cell_2_4 cell_3_4 cell_4_4 cell_5_4 cell_6_4 cell_7_4 cell_8_4 cell_9_4) true))
(assert
 (and (distinct cell_1_5 cell_2_5 cell_3_5 cell_4_5 cell_5_5 cell_6_5 cell_7_5 cell_8_5 cell_9_5) true))
(assert
 (and (distinct cell_1_6 cell_2_6 cell_3_6 cell_4_6 cell_5_6 cell_6_6 cell_7_6 cell_8_6 cell_9_6) true))
(assert
 (and (distinct cell_1_7 cell_2_7 cell_3_7 cell_4_7 cell_5_7 cell_6_7 cell_7_7 cell_8_7 cell_9_7) true))
(assert
 (and (distinct cell_1_8 cell_2_8 cell_3_8 cell_4_8 cell_5_8 cell_6_8 cell_7_8 cell_8_8 cell_9_8) true))
(assert
 (and (distinct cell_1_9 cell_2_9 cell_3_9 cell_4_9 cell_5_9 cell_6_9 cell_7_9 cell_8_9 cell_9_9) true))
(assert
 (and (distinct cell_1_1 cell_1_2 cell_1_3 cell_2_1 cell_2_2 cell_2_3 cell_3_1 cell_3_2 cell_3_3) true))
(assert
 (and (distinct cell_1_4 cell_1_5 cell_1_6 cell_2_4 cell_2_5 cell_2_6 cell_3_4 cell_3_5 cell_3_6) true))
(assert
 (and (distinct cell_1_7 cell_1_8 cell_1_9 cell_2_7 cell_2_8 cell_2_9 cell_3_7 cell_3_8 cell_3_9) true))
(assert
 (and (distinct cell_4_1 cell_4_2 cell_4_3 cell_5_1 cell_5_2 cell_5_3 cell_6_1 cell_6_2 cell_6_3) true))
(assert
 (and (distinct cell_4_4 cell_4_5 cell_4_6 cell_5_4 cell_5_5 cell_5_6 cell_6_4 cell_6_5 cell_6_6) true))
(assert
 (and (distinct cell_4_7 cell_4_8 cell_4_9 cell_5_7 cell_5_8 cell_5_9 cell_6_7 cell_6_8 cell_6_9) true))
(assert
 (and (distinct cell_7_1 cell_7_2 cell_7_3 cell_8_1 cell_8_2 cell_8_3 cell_9_1 cell_9_2 cell_9_3) true))
(assert
 (and (distinct cell_7_4 cell_7_5 cell_7_6 cell_8_4 cell_8_5 cell_8_6 cell_9_4 cell_9_5 cell_9_6) true))
(assert
 (and (distinct cell_7_7 cell_7_8 cell_7_9 cell_8_7 cell_8_8 cell_8_9 cell_9_7 cell_9_8 cell_9_9) true))
(assert
 (let (($x539 (and (distinct cell_5_9 cell_6_8 cell_7_7 cell_8_6) true)))
 (let (($x395 (and (distinct cell_2_9 cell_3_8 cell_4_7 cell_5_6 cell_6_5 cell_7_4 cell_8_3 cell_9_2) true)))
 (let (($x2856 (and (distinct cell_1_8 cell_2_7 cell_3_6 cell_4_5 cell_5_4 cell_6_3 cell_7_2 cell_8_1) true)))
 (let (($x1742 (and (distinct cell_1_5 cell_2_4 cell_3_3 cell_4_2) true)))
 (let (($x674 (and (distinct cell_5_1 cell_6_2 cell_7_3 cell_8_4) true)))
 (let (($x787 (and (distinct cell_2_1 cell_3_2 cell_4_3 cell_5_4 cell_6_5 cell_7_6 cell_8_7 cell_9_8) true)))
 (let (($x2275 (and (distinct cell_1_2 cell_2_3 cell_3_4 cell_4_5 cell_5_6 cell_6_7 cell_7_8 cell_8_9) true)))
 (let (($x103 (and (distinct cell_1_5 cell_2_6 cell_3_7 cell_4_8) true)))
 (and $x103 $x2275 $x787 $x674 $x1742 $x2856 $x395 $x539))))))))))
(assert
 (= cell_7_3 2))
(check-sat)
